0 4841
2401 4708
4802 4622
7203 4553
9604 4480
12005 4427
14406 4369
16807 4331
19208 4287
21609 4250
24010 4230
26411 4203
28812 4186
31213 4174
33614 4160
36015 4139
38416 4124
40817 4117
43218 4106
45619 4100
48020 4091
